&CONTROL
  calculation = 'scf'
  etot_conv_thr =   1.1400000000d-03
  forc_conv_thr =   1.0000000000d-04
  outdir = './out/'
  prefix = 'sample_pwscf_file'
  pseudo_dir = '/path/to/pseudo/dir/'
  tprnfor = .true.
  tstress = .true.
  verbosity = 'high'
  nstep = 999
/
&SYSTEM
  ecutrho =   4.8000000000d+02
  ecutwfc =   6.0000000000d+01
  ibrav = 0
  nat = 115
  nosym = .false.
  ntyp = 5
  occupations = 'smearing'
  smearing = 'gaussian'
  degauss = 0.001
  input_dft = 'vdw-df-cx'
/
&ELECTRONS
  conv_thr =   2.2800000000d-08
  electron_maxstep = 80
  mixing_beta =   4.0000000000d-01
/
K_POINTS automatic
2 2 1 0 0 0
ATOMIC_SPECIES
Br     79.904 br_pbe_v1.4.uspp.F.UPF
Hg     200.59 Hg_ONCV_PBE-1.0.oncvpsp.upf
C      12.0107 C.pbe-n-kjpaw_psl.1.0.0.UPF
S      32.065 s_pbe_v1.4.uspp.F.UPF
H      1.00794 H.pbe-rrkjus_psl.1.0.0.UPF
ATOMIC_POSITIONS crystal
Hg           0.2924341670       0.5665188334       0.9995376734 
Hg           0.6301721628       0.4660340622       0.0006659306 
Hg           0.9665250112       0.4827526527       0.0006957479 
Br           0.7223434370       0.3561805715       0.8910998640 
Br           0.8221002949       0.4575252357       0.1098901684 
Br           0.3000981720       0.6551290042       0.1274047982 
Br           0.1782882809       0.5384773694       0.8724081967 
Br           0.4303774389       0.2801502993       0.9989659544 
Br           0.0582493951       0.2205593257       0.0018551778 
Br           0.5294554389       0.7441467248       0.9994347665 
Br           0.9548242065       0.7714917648       0.0010227258 
S            0.0009859648       0.2842468738       0.5453221070 
S            0.4899973397       0.7355504398       0.4522302655 
S            0.0012631052       0.7188133327       0.4555525083 
S            0.5127005925       0.2663589422       0.5482418974 
S            0.7968936213       0.0244827780       0.5083029007 
S            0.7046887283       0.5393171078       0.4933527873 
S            0.2071739202       0.9760402278       0.4915709934 
S            0.2966993726       0.4618191889       0.5088383466 
S            0.9945604826       0.3917302630       0.6937970238 
S            0.4929477872       0.6881042860       0.3024300288 
S            0.0042817138       0.6097488096       0.3068573476 
S            0.5133986585       0.3105405711       0.6980964797 
S            0.7503755951       0.0788683484       0.6489809162 
S            0.7508837599       0.4530576836       0.3529756009 
S            0.2521686456       0.9175405720       0.3503157176 
S            0.2534830057       0.5442371730       0.6503386233 
S            0.8073701298       0.9600800795       0.3454177199 
S            0.6981360937       0.6388011747       0.6555620433 
S            0.1972156134       0.0407369359       0.6556517541 
S            0.3013999695       0.3610501971       0.3450904175 
S            0.0085299867       0.2215708326       0.3812157625 
S            0.4830055470       0.8356733792       0.6180391696 
S            0.9946659648       0.7799993963       0.6183092391 
S            0.5188748048       0.1682602777       0.3838294746 
S            0.7785686999       0.8938443904       0.1908012771 
S            0.7217629744       0.7187137905       0.8098154461 
S            0.2208339251       0.1066781289       0.8099999103 
S            0.2801174792       0.2800650005       0.1909849432 
S            0.0081391175       0.2208037222       0.2340066677 
S            0.4795717119       0.9755525469       0.7646809444 
S            0.9865165550       0.7849901424       0.7641879457 
S            0.5285641481       0.0332512959       0.2382148985 
C            0.9002201847       0.1373084851       0.4795944446 
C            0.5953448258       0.6674388460       0.5199392466 
C            0.1035925043       0.8651761946       0.5208417787 
C            0.4056752586       0.3347836833       0.4812628002 
C            0.9295523448       0.2606952727       0.6123643230 
C            0.5627888496       0.6504948050       0.3857840277 
C            0.0725008615       0.7398610539       0.3881479849 
C            0.4407673878       0.3491631283       0.6153302994 
C            0.8357789120       0.1404436281       0.5951084918 
C            0.6618495587       0.5601090527       0.4051180814 
C            0.1673759604       0.8586150404       0.4050397802 
C            0.3409850167       0.4390658002       0.5967823299 
C            0.8817476091       0.3524970354       0.7424324168 
C            0.6061614068       0.6093418405       0.2538457350 
C            0.1120469848       0.6509419319       0.2556141707 
C            0.4061445707       0.3948986325       0.7498018622 
C            0.8501342636       0.1754121421       0.7356736547 
C            0.6489532823       0.4470110982       0.2650530892 
C            0.1457183577       0.8284116385       0.2646003843 
C            0.3618437897       0.5556245407       0.7369585230 
C            0.9050956370       0.1100645973       0.4103688271 
C            0.5913246591       0.7087469940       0.5893998928 
C            0.0989559091       0.8924396032       0.5900896803 
C            0.4091197521       0.2936671224       0.4117078683 
C            0.9413683758       0.1386192247       0.2907113037 
C            0.5526955774       0.8490995808       0.7087932196 
C            0.0579666546       0.8651440246       0.7088135978 
C            0.4516114598       0.1560386437       0.2930679027 
C            0.8506265346       0.0144514938       0.2742305909 
C            0.6492851702       0.7533446853       0.7260196619 
C            0.1498790656       0.9881314662       0.7260157115 
C            0.3532633238       0.2489738412       0.2752207985 
C            0.9488855403       0.0767002529       0.1504794681 
C            0.5471717479       0.9257941882       0.8502482796 
C            0.0516249178       0.9208628559       0.8494620227 
C            0.4580374783       0.0772063273       0.1518404259 
C            0.8094231323       0.0240079633       0.1346138266 
C            0.6874315101       0.9002294845       0.8652576502 
C            0.1913266218       0.9703778701       0.8639640832 
C            0.3171810460       0.0982221555       0.1370467416 
H            0.7948662694       0.4132036871       0.7256924782 
H            0.6883566104       0.6968870626       0.2670581566 
H            0.1981902550       0.5866126829       0.2688579579 
H            0.3248135856       0.3080346090       0.7404471463 
H            0.9307230388       0.4095722642       0.7978127270 
H            0.5533357287       0.6010768598       0.1981122924 
H            0.0584929415       0.5987930561       0.2004353770 
H            0.4636597751       0.4077234382       0.8049993748 
H            0.7921806997       0.1597782525       0.7720037871 
H            0.7091022486       0.4024295345       0.2295404644 
H            0.1993686542       0.8462680456       0.2265790114 
H            0.3057706086       0.6037049832       0.7742225256 
H            0.9362973234       0.1108149517       0.7474952598 
H            0.5678396253       0.3596997763       0.2550217976 
H            0.0605228888       0.8958056322       0.2565453843 
H            0.4421842286       0.6416524021       0.7435767736 
H            0.9642981617       0.1436670087       0.1112525641 
H            0.5312315265       0.0320675528       0.8880717483 
H            0.0369647592       0.8493002567       0.8872833478 
H            0.4754294033       0.9702236550       0.1148975022 
H            0.0067651246       0.9729819109       0.1483978387 
H            0.4931549620       0.8214281341       0.8557549038 
H            0.9960579868       0.0263708758       0.8547186716 
H            0.5093453809       0.1823123150       0.1449464143 
H            0.7764463829       0.9476307351       0.0808961111 
H            0.7223577601       0.8789129540       0.9192292184 
H            0.2274938583       0.0417232860       0.9184844178 
H            0.2808815297       0.1162992859       0.0826466930 
H            0.7511650362       0.1274228604       0.1382941206 
H            0.7431643414       0.0045726001       0.8609440327 
H            0.2474705733       0.8656339767       0.8571250237 
H            0.2640369494       0.9932108434       0.1427198293 
CELL_PARAMETERS angstrom
      0.2163661290     -10.9497691443       0.0000000000
     -8.5535282850       0.0000000000       0.0000000000
      4.0914227185       5.1860306971     -18.8911751045
